unsat
((set-logic NIA)
(declare-fun b!2 () Int)
(declare-fun r!1 () Int)
(declare-fun a!4 () Int)
(declare-fun s!0 () Int)
(declare-fun q!3 () Int)
(declare-fun p!5 () Int)
(proof
(let ((?x326 (* r!1 b!2)))
 (let ((?x127 (* s00 a00)))
 (let ((?x765 (+ ?x127 (* (- 1) (* r00 b00)) (* (- 1) (* s!0 a!4)) ?x326)))
 (let (($x293 (>= ?x765 0)))
 (let (($x767 (= ?x765 0)))
 (let ((?x281 (* s!0 a!4)))
 (let ((?x145 (* r00 b00)))
 (let ((?x134 (* (- 1) ?x127)))
 (let ((?x985 (+ ?x134 ?x145 ?x281 (* (- 1) ?x326))))
 (let ((?x839 (* (- 1) (* q!3 q!3 q!3 r!1 r!1 b!2 b!2))))
 (let ((?x209 (* q!3 q!3 s!0 s!0 a!4 a!4 a!4)))
 (let ((?x423 (+ (* 2 (* q!3 q!3 q!3 r!1 r!1 b!2 a!4)) (* (- 1) (* q!3 q!3 q!3 r!1 r!1 a!4 a!4)) ?x209 (* (- 3) (* p!5 p!5 q!3 r!1 r!1 b!2 b!2)) (* (- 6) (* p!5 q!3 q!3 r!1 r!1 b!2 a!4)) (* (- 3) (* p!5 p!5 q!3 r!1 r!1 a!4 a!4)) (* (- 2) (* p!5 q!3 s!0 s!0 a!4 a!4 a!4)) (* (- 2) (* p!5 p!5 p!5 r!1 r!1 b!2 a!4)) (* p!5 p!5 p!5 r!1 r!1 b!2 b!2) (* (- 2) (* p!5 p!5 s!0 r!1 a!4 a!4 a!4)) (* q!3 q!3 r!1 r!1 a!4 a!4 a!4) (* p!5 p!5 s!0 s!0 a!4 a!4 a!4) (* 3 (* p!5 q!3 q!3 r!1 r!1 a!4 a!4)) (* p!5 p!5 r!1 r!1 a!4 a!4 a!4) (* (- 2) (* q!3 q!3 s!0 r!1 a!4 a!4 a!4)) (* 4 (* p!5 q!3 s!0 r!1 a!4 a!4 a!4)) ?x839 (* (- 2) (* p!5 q!3 r!1 r!1 a!4 a!4 a!4)) (* p!5 p!5 p!5 r!1 r!1 a!4 a!4) (* 6 (* p!5 p!5 q!3 r!1 r!1 b!2 a!4)) (* 3 (* p!5 q!3 q!3 r!1 r!1 b!2 b!2)))))
 (let ((?x426 (* ?x423 ?x985)))
 (let (($x814 (= ?x426 0)))
 (let ((?x629 (+ ?x209 ?x839 (* (- 3) (* q!3 q!3 s!0 s!0 b!2 a!4 a!4)) (* (- 1) (* q!3 q!3 q!3 s!0 s!0 b!2 b!2)) (* 3 (* q!3 q!3 s!0 s!0 b!2 b!2 a!4)) (* 2 (* q!3 q!3 q!3 s!0 r!1 b!2 b!2)) (* (- 1) (* q!3 q!3 s!0 s!0 b!2 b!2 b!2)))))
 (let ((?x640 (* ?x629 ?x985)))
 (let (($x1022 (= ?x640 0)))
 (let (($x557 (not $x1022)))
 (let (($x171 (or $x557 (not $x814))))
 (let ((?x162 (+ (* p00 b00 s!0) (* (- 1) (* q00 a00 s!0)) (* (- 1) (* p00 s00 b!2)) (* (- 1) (* r00 b00 q!3)) (* q00 r00 b!2) (* s00 a00 q!3))))
 (let ((?x943 (+ (* p00 s00 a!4) (* (- 1) (* q00 r00 a!4)) (* r00 b00 p!5) (* (- 1) (* p00 b00 r!1)) (* (- 1) (* s00 a00 p!5)) (* q00 a00 r!1))))
 (let ((?x785 (* p!5 b!2)))
 (let ((?x133 (* q00 a00)))
 (let (($x745 (= (+ ?x133 (* (- 1) (* p00 b00)) (* (- 1) (* q!3 a!4)) ?x785) 0)))
 (let ((?x250 (* q!3 r!1)))
 (let ((?x41 (* q00 r00)))
 (let ((?x205 (* (- 1) ?x41)))
 (let ((?x37 (* p00 s00)))
 (let (($x709 (and (= (+ ?x37 ?x205 (* (- 1) (* p!5 s!0)) ?x250) 0) $x767 $x745 (= ?x943 0) (= ?x162 0) $x171)))
 (let ((?x781 (+ (* a!4 s!0) (* (- 1) (* b!2 r!1)) ?x134 ?x145)))
 (let ((?x386 (* (- 1) (* q!3 q!3 q!3 b!2 b!2 r!1 r!1))))
 (let ((?x770 (* a!4 a!4 a!4 q!3 q!3 s!0 s!0)))
 (let ((?x1016 (+ (* p!5 p!5 p!5 a!4 a!4 r!1 r!1) (* 6 (* p!5 p!5 a!4 q!3 b!2 r!1 r!1)) (* (- 3) (* p!5 p!5 a!4 a!4 q!3 r!1 r!1)) (* p!5 p!5 p!5 b!2 b!2 r!1 r!1) ?x770 ?x386 (* 3 (* p!5 a!4 a!4 q!3 q!3 r!1 r!1)) (* p!5 p!5 a!4 a!4 a!4 r!1 r!1) (* (- 2) (* p!5 p!5 p!5 a!4 b!2 r!1 r!1)) (* (- 2) (* p!5 a!4 a!4 a!4 q!3 r!1 r!1)) (* a!4 a!4 a!4 q!3 q!3 r!1 r!1) (* (- 2) (* p!5 p!5 a!4 a!4 a!4 r!1 s!0)) (* 4 (* p!5 a!4 a!4 a!4 q!3 r!1 s!0)) (* (- 2) (* a!4 a!4 a!4 q!3 q!3 r!1 s!0)) (* p!5 p!5 a!4 a!4 a!4 s!0 s!0) (* (- 2) (* p!5 a!4 a!4 a!4 q!3 s!0 s!0)) (* (- 3) (* p!5 p!5 q!3 b!2 b!2 r!1 r!1)) (* (- 6) (* p!5 a!4 q!3 q!3 b!2 r!1 r!1)) (* 3 (* p!5 q!3 q!3 b!2 b!2 r!1 r!1)) (* (- 1) (* a!4 a!4 q!3 q!3 q!3 r!1 r!1)) (* 2 (* a!4 q!3 q!3 q!3 b!2 r!1 r!1)))))
 (let ((?x554 (+ (* (- 1) (* q!3 q!3 q!3 b!2 b!2 s!0 s!0)) ?x770 (* (- 3) (* a!4 a!4 q!3 q!3 b!2 s!0 s!0)) (* 3 (* a!4 q!3 q!3 b!2 b!2 s!0 s!0)) ?x386 (* 2 (* q!3 q!3 q!3 b!2 b!2 r!1 s!0)) (* (- 1) (* q!3 q!3 b!2 b!2 b!2 s!0 s!0)))))
 (let ((?x710 (+ (* b!2 q00 r00) (* (- 1) (* b!2 p00 s00)) (* s!0 p00 b00) (* (- 1) (* q!3 r00 b00)) (* q!3 s00 a00) (* (- 1) (* s!0 q00 a00)))))
 (let ((?x778 (+ (* a!4 p00 s00) (* (- 1) (* a!4 q00 r00)) (* p!5 r00 b00) (* (- 1) (* r!1 p00 b00)) (* (- 1) (* p!5 s00 a00)) (* r!1 q00 a00))))
 (let (($x788 (= (+ (* a!4 q!3) (* (- 1) ?x133) (* p00 b00) (* (- 1) ?x785)) 0)))
 (let (($x827 (and (= (+ (* p!5 s!0) (* (- 1) ?x37) ?x41 (* (- 1) ?x250)) 0) (= ?x781 0) $x788 (= ?x778 0) (= ?x710 0) (or (not (= (* ?x554 ?x781) 0)) (not (= (* ?x1016 ?x781) 0))))))
 (let (($x400 (exists ((p Int) (a Int) (q Int) (b Int) (r Int) (s Int) )(! (let ((?x145 (* r00 b00)))
 (let ((?x127 (* s00 a00)))
 (let ((?x134 (* (- 1) ?x127)))
 (let ((?x122 (* (- 1) (* b r))))
 (let ((?x49 (* a s)))
 (let ((?x152 (+ ?x49 ?x122 ?x134 ?x145)))
 (let ((?x695 (* (- 2) (* p a a a q s s))))
 (let ((?x663 (* p p a a a s s)))
 (let ((?x694 (* (- 2) (* a a a q q r s))))
 (let ((?x693 (* 4 (* p a a a q r s))))
 (let ((?x691 (* (- 2) (* p p a a a r s))))
 (let ((?x597 (* a a a q q r r)))
 (let ((?x690 (* (- 2) (* p a a a q r r))))
 (let ((?x575 (* p p a a a r r)))
 (let ((?x582 (* (- 1) (* q q q b b r r))))
 (let ((?x351 (* a a a q q s s)))
 (let ((?x1056 (+ (* p p p a a r r) (* 6 (* p p a q b r r)) (* (- 3) (* p p a a q r r)) (* p p p b b r r) ?x351 ?x582 (* 3 (* p a a q q r r)) ?x575 (* (- 2) (* p p p a b r r)) ?x690 ?x597 ?x691 ?x693 ?x694 ?x663 ?x695 (* (- 3) (* p p q b b r r)) (* (- 6) (* p a q q b r r)) (* 3 (* p q q b b r r)) (* (- 1) (* a a q q q r r)) (* 2 (* a q q q b r r)))))
 (let ((?x413 (* (- 1) (* q q b b b s s))))
 (let ((?x422 (* 3 (* a q q b b s s))))
 (let ((?x420 (* (- 3) (* a a q q b s s))))
 (let ((?x195 (+ (* (- 1) (* q q q b b s s)) ?x351 ?x420 ?x422 ?x582 (* 2 (* q q q b b r s)) ?x413)))
 (let ((?x72 (* b q00 r00)))
 (let ((?x311 (+ ?x72 (* (- 1) (* b p00 s00)) (* s p00 b00) (* (- 1) (* q r00 b00)) (* q s00 a00) (* (- 1) (* s q00 a00)))))
 (let (($x316 (= ?x311 0)))
 (let ((?x63 (* a p00 s00)))
 (let ((?x247 (+ ?x63 (* (- 1) (* a q00 r00)) (* p r00 b00) (* (- 1) (* r p00 b00)) (* (- 1) (* p s00 a00)) (* r q00 a00))))
 (let (($x248 (= ?x247 0)))
 (let ((?x138 (* p00 b00)))
 (let ((?x133 (* q00 a00)))
 (let ((?x179 (* (- 1) ?x133)))
 (let (($x182 (= (+ (* a q) ?x179 ?x138 (* (- 1) (* p b))) 0)))
 (let (($x160 (= ?x152 0)))
 (let ((?x41 (* q00 r00)))
 (let ((?x37 (* p00 s00)))
 (let ((?x136 (* (- 1) ?x37)))
 (let ((?x33 (* p s)))
 (let (($x155 (= (+ ?x33 ?x136 ?x41 (* (- 1) (* q r))) 0)))
 (and $x155 $x160 $x182 $x248 $x316 (or (not (= (* ?x195 ?x152) 0)) (not (= (* ?x1056 ?x152) 0))))))))))))))))))))))))))))))))))))))))) :qid k!39))
 ))
 (let (($x449 (exists ((p Int) (a Int) (q Int) (b Int) (r Int) (s Int) )(! (let ((?x51 (* b00 r00)))
 (let ((?x47 (* a00 s00)))
 (let ((?x406 (* (- 1) ?x47)))
 (let ((?x469 (+ (* (- 1) (* (+ b (* (- 1) a)) r)) ?x406 (* (+ s (* (- 1) r)) a) ?x51)))
 (let ((?x465 (* (- 1) p)))
 (let ((?x318 (+ q ?x465)))
 (let ((?x608 (+ s (* (- 1) r))))
 (let ((?x333 (* (- 1) a)))
 (let ((?x626 (+ b ?x333)))
 (let ((?x376 (+ (* (- 1) (* ?x626 ?x626 ?x318 ?x318 ?x318 r r)) (* ?x608 ?x608 ?x318 ?x318 a a a))))
 (let ((?x668 (+ (* (- 1) (* (+ r (* (- 1) s)) b)) ?x406 (* (+ a (* (- 1) b)) s) ?x51)))
 (let ((?x297 (+ a (* (- 1) b))))
 (let ((?x257 (* (- 1) s)))
 (let ((?x237 (+ r ?x257)))
 (let ((?x308 (+ (* (- 1) (* ?x237 ?x237 b b q q q)) (* ?x297 ?x297 ?x297 s s q q))))
 (let (($x360 (or (not (= (* ?x308 ?x668) 0)) (not (= (* ?x376 ?x469) 0)))))
 (let ((?x73 (* b00 p00 s)))
 (let ((?x627 (+ (* q00 r00 b) ?x73 (* (- 1) (* b00 r00 q)) (* (- 1) (* p00 s00 b)) (* a00 s00 q) (* (- 1) (* a00 q00 s)))))
 (let (($x602 (= ?x627 0)))
 (let ((?x69 (* a00 q00 r)))
 (let ((?x684 (* p00 s00 a)))
 (let ((?x191 (* b00 r00 p)))
 (let ((?x466 (+ ?x191 ?x684 (* (- 1) (* b00 p00 r)) (* (- 1) (* q00 r00 a)) (* (- 1) (* a00 s00 p)) ?x69)))
 (let ((?x57 (* b00 p00)))
 (let ((?x313 (* q a)))
 (let (($x230 (= (+ ?x313 (* (- 1) (* a00 q00)) ?x57 (* (- 1) (* b p))) 0)))
 (let (($x269 (= (+ (* r b) ?x47 (* (- 1) (* s a)) (* (- 1) ?x51)) 0)))
 (let ((?x41 (* q00 r00)))
 (let ((?x205 (* (- 1) ?x41)))
 (let ((?x37 (* p00 s00)))
 (let ((?x294 (* r q)))
 (and (= (+ ?x294 (* (- 1) (* s p)) ?x37 ?x205) 0) $x269 $x230 (= ?x466 0) $x602 $x360)))))))))))))))))))))))))))))))) :qid k!39))
 ))
 (let ((?x402 (lambda ((p Int) (a Int) (q Int) (b Int) (r Int) (s Int) )(let ((?x145 (* r00 b00)))
 (let ((?x127 (* s00 a00)))
 (let ((?x134 (* (- 1) ?x127)))
 (let ((?x122 (* (- 1) (* b r))))
 (let ((?x49 (* a s)))
 (let ((?x152 (+ ?x49 ?x122 ?x134 ?x145)))
 (let ((?x695 (* (- 2) (* p a a a q s s))))
 (let ((?x663 (* p p a a a s s)))
 (let ((?x694 (* (- 2) (* a a a q q r s))))
 (let ((?x693 (* 4 (* p a a a q r s))))
 (let ((?x691 (* (- 2) (* p p a a a r s))))
 (let ((?x597 (* a a a q q r r)))
 (let ((?x690 (* (- 2) (* p a a a q r r))))
 (let ((?x575 (* p p a a a r r)))
 (let ((?x582 (* (- 1) (* q q q b b r r))))
 (let ((?x351 (* a a a q q s s)))
 (let ((?x1056 (+ (* p p p a a r r) (* 6 (* p p a q b r r)) (* (- 3) (* p p a a q r r)) (* p p p b b r r) ?x351 ?x582 (* 3 (* p a a q q r r)) ?x575 (* (- 2) (* p p p a b r r)) ?x690 ?x597 ?x691 ?x693 ?x694 ?x663 ?x695 (* (- 3) (* p p q b b r r)) (* (- 6) (* p a q q b r r)) (* 3 (* p q q b b r r)) (* (- 1) (* a a q q q r r)) (* 2 (* a q q q b r r)))))
 (let ((?x413 (* (- 1) (* q q b b b s s))))
 (let ((?x422 (* 3 (* a q q b b s s))))
 (let ((?x420 (* (- 3) (* a a q q b s s))))
 (let ((?x195 (+ (* (- 1) (* q q q b b s s)) ?x351 ?x420 ?x422 ?x582 (* 2 (* q q q b b r s)) ?x413)))
 (let ((?x72 (* b q00 r00)))
 (let ((?x311 (+ ?x72 (* (- 1) (* b p00 s00)) (* s p00 b00) (* (- 1) (* q r00 b00)) (* q s00 a00) (* (- 1) (* s q00 a00)))))
 (let (($x316 (= ?x311 0)))
 (let ((?x63 (* a p00 s00)))
 (let ((?x247 (+ ?x63 (* (- 1) (* a q00 r00)) (* p r00 b00) (* (- 1) (* r p00 b00)) (* (- 1) (* p s00 a00)) (* r q00 a00))))
 (let (($x248 (= ?x247 0)))
 (let ((?x138 (* p00 b00)))
 (let ((?x133 (* q00 a00)))
 (let ((?x179 (* (- 1) ?x133)))
 (let (($x182 (= (+ (* a q) ?x179 ?x138 (* (- 1) (* p b))) 0)))
 (let (($x160 (= ?x152 0)))
 (let ((?x41 (* q00 r00)))
 (let ((?x37 (* p00 s00)))
 (let ((?x136 (* (- 1) ?x37)))
 (let ((?x33 (* p s)))
 (let (($x155 (= (+ ?x33 ?x136 ?x41 (* (- 1) (* q r))) 0)))
 (let (($x1146 (and $x155 $x160 $x182 $x248 $x316 (or (not (= (* ?x195 ?x152) 0)) (not (= (* ?x1056 ?x152) 0))))))
 (let ((?x51 (* b00 r00)))
 (let ((?x47 (* a00 s00)))
 (let ((?x406 (* (- 1) ?x47)))
 (let ((?x469 (+ (* (- 1) (* (+ b (* (- 1) a)) r)) ?x406 (* (+ s (* (- 1) r)) a) ?x51)))
 (let ((?x465 (* (- 1) p)))
 (let ((?x318 (+ q ?x465)))
 (let ((?x608 (+ s (* (- 1) r))))
 (let ((?x333 (* (- 1) a)))
 (let ((?x626 (+ b ?x333)))
 (let ((?x376 (+ (* (- 1) (* ?x626 ?x626 ?x318 ?x318 ?x318 r r)) (* ?x608 ?x608 ?x318 ?x318 a a a))))
 (let ((?x668 (+ (* (- 1) (* (+ r (* (- 1) s)) b)) ?x406 (* (+ a (* (- 1) b)) s) ?x51)))
 (let ((?x297 (+ a (* (- 1) b))))
 (let ((?x257 (* (- 1) s)))
 (let ((?x237 (+ r ?x257)))
 (let ((?x308 (+ (* (- 1) (* ?x237 ?x237 b b q q q)) (* ?x297 ?x297 ?x297 s s q q))))
 (let (($x360 (or (not (= (* ?x308 ?x668) 0)) (not (= (* ?x376 ?x469) 0)))))
 (let ((?x73 (* b00 p00 s)))
 (let ((?x627 (+ (* q00 r00 b) ?x73 (* (- 1) (* b00 r00 q)) (* (- 1) (* p00 s00 b)) (* a00 s00 q) (* (- 1) (* a00 q00 s)))))
 (let (($x602 (= ?x627 0)))
 (let ((?x69 (* a00 q00 r)))
 (let ((?x684 (* p00 s00 a)))
 (let ((?x191 (* b00 r00 p)))
 (let ((?x466 (+ ?x191 ?x684 (* (- 1) (* b00 p00 r)) (* (- 1) (* q00 r00 a)) (* (- 1) (* a00 s00 p)) ?x69)))
 (let ((?x57 (* b00 p00)))
 (let ((?x313 (* q a)))
 (let (($x230 (= (+ ?x313 (* (- 1) (* a00 q00)) ?x57 (* (- 1) (* b p))) 0)))
 (let (($x269 (= (+ (* r b) ?x47 (* (- 1) (* s a)) (* (- 1) ?x51)) 0)))
 (let (($x546 (= (+ (* r q) (* (- 1) (* s p)) ?x37 (* (- 1) ?x41)) 0)))
 (let (($x686 (and $x546 $x269 $x230 (= ?x466 0) $x602 $x360)))
 (rewrite (= $x686 $x1146))))))))))))))))))))))))))))))))))))))))))))))))))))))))))))))))))))))
 ))
 (let (($x157 (exists ((p Int) (a Int) (q Int) (b Int) (r Int) (s Int) )(! (let ((?x51 (* b00 r00)))
 (let ((?x47 (* a00 s00)))
 (let ((?x406 (* (- 1) ?x47)))
 (let ((?x469 (+ (* (- 1) (* (+ b (* (- 1) a)) r)) ?x406 (* (+ s (* (- 1) r)) a) ?x51)))
 (let ((?x465 (* (- 1) p)))
 (let ((?x318 (+ q ?x465)))
 (let ((?x608 (+ s (* (- 1) r))))
 (let ((?x333 (* (- 1) a)))
 (let ((?x626 (+ b ?x333)))
 (let ((?x376 (+ (* (- 1) (* ?x626 ?x626 ?x318 ?x318 ?x318 r r)) (* ?x608 ?x608 ?x318 ?x318 a a a))))
 (let ((?x668 (+ (* (- 1) (* (+ r (* (- 1) s)) b)) ?x406 (* (+ a (* (- 1) b)) s) ?x51)))
 (let ((?x297 (+ a (* (- 1) b))))
 (let ((?x257 (* (- 1) s)))
 (let ((?x237 (+ r ?x257)))
 (let ((?x308 (+ (* (- 1) (* ?x237 ?x237 b b q q q)) (* ?x297 ?x297 ?x297 s s q q))))
 (let (($x360 (or (not (= (* ?x308 ?x668) 0)) (not (= (* ?x376 ?x469) 0)))))
 (let ((?x73 (* b00 p00 s)))
 (let ((?x627 (+ (* q00 r00 b) ?x73 (* (- 1) (* b00 r00 q)) (* (- 1) (* p00 s00 b)) (* a00 s00 q) (* (- 1) (* a00 q00 s)))))
 (let (($x602 (= ?x627 0)))
 (let ((?x329 (* a00 s00 p)))
 (let ((?x328 (* q00 r00 a)))
 (let ((?x65 (* b00 p00 r)))
 (let ((?x539 (+ (* (- 1) (* b00 r00 p)) (* (- 1) (* p00 s00 a)) ?x65 ?x328 ?x329 (* (- 1) (* a00 q00 r)))))
 (let ((?x59 (* b p)))
 (let ((?x55 (* a00 q00)))
 (let (($x280 (= (+ (* (- 1) (* q a)) ?x55 (* (- 1) (* b00 p00)) ?x59) 0)))
 (let ((?x41 (* q00 r00)))
 (let ((?x37 (* p00 s00)))
 (let ((?x136 (* (- 1) ?x37)))
 (let ((?x381 (* s p)))
 (and (= (+ (* (- 1) (* r q)) ?x381 ?x136 ?x41) 0) (= (+ (* (- 1) (* r b)) ?x406 (* s a) ?x51) 0) $x280 (= ?x539 0) $x602 $x360))))))))))))))))))))))))))))))) :qid k!39))
 ))
 (let ((?x448 (lambda ((p Int) (a Int) (q Int) (b Int) (r Int) (s Int) )(let ((?x51 (* b00 r00)))
 (let ((?x47 (* a00 s00)))
 (let ((?x406 (* (- 1) ?x47)))
 (let ((?x469 (+ (* (- 1) (* (+ b (* (- 1) a)) r)) ?x406 (* (+ s (* (- 1) r)) a) ?x51)))
 (let ((?x465 (* (- 1) p)))
 (let ((?x318 (+ q ?x465)))
 (let ((?x608 (+ s (* (- 1) r))))
 (let ((?x333 (* (- 1) a)))
 (let ((?x626 (+ b ?x333)))
 (let ((?x376 (+ (* (- 1) (* ?x626 ?x626 ?x318 ?x318 ?x318 r r)) (* ?x608 ?x608 ?x318 ?x318 a a a))))
 (let ((?x668 (+ (* (- 1) (* (+ r (* (- 1) s)) b)) ?x406 (* (+ a (* (- 1) b)) s) ?x51)))
 (let ((?x297 (+ a (* (- 1) b))))
 (let ((?x257 (* (- 1) s)))
 (let ((?x237 (+ r ?x257)))
 (let ((?x308 (+ (* (- 1) (* ?x237 ?x237 b b q q q)) (* ?x297 ?x297 ?x297 s s q q))))
 (let (($x360 (or (not (= (* ?x308 ?x668) 0)) (not (= (* ?x376 ?x469) 0)))))
 (let ((?x73 (* b00 p00 s)))
 (let ((?x627 (+ (* q00 r00 b) ?x73 (* (- 1) (* b00 r00 q)) (* (- 1) (* p00 s00 b)) (* a00 s00 q) (* (- 1) (* a00 q00 s)))))
 (let (($x602 (= ?x627 0)))
 (let ((?x69 (* a00 q00 r)))
 (let ((?x684 (* p00 s00 a)))
 (let ((?x191 (* b00 r00 p)))
 (let ((?x466 (+ ?x191 ?x684 (* (- 1) (* b00 p00 r)) (* (- 1) (* q00 r00 a)) (* (- 1) (* a00 s00 p)) ?x69)))
 (let ((?x57 (* b00 p00)))
 (let ((?x313 (* q a)))
 (let (($x230 (= (+ ?x313 (* (- 1) (* a00 q00)) ?x57 (* (- 1) (* b p))) 0)))
 (let (($x269 (= (+ (* r b) ?x47 (* (- 1) (* s a)) (* (- 1) ?x51)) 0)))
 (let ((?x41 (* q00 r00)))
 (let ((?x205 (* (- 1) ?x41)))
 (let ((?x37 (* p00 s00)))
 (let ((?x294 (* r q)))
 (let (($x686 (and (= (+ ?x294 (* (- 1) (* s p)) ?x37 ?x205) 0) $x269 $x230 (= ?x466 0) $x602 $x360)))
 (let ((?x329 (* a00 s00 p)))
 (let ((?x328 (* q00 r00 a)))
 (let ((?x65 (* b00 p00 r)))
 (let (($x619 (= (+ (* (- 1) ?x191) (* (- 1) ?x684) ?x65 ?x328 ?x329 (* (- 1) ?x69)) 0)))
 (let (($x280 (= (+ (* (- 1) ?x313) (* a00 q00) (* (- 1) ?x57) (* b p)) 0)))
 (let (($x452 (and (= (+ (* (- 1) ?x294) (* s p) (* (- 1) ?x37) ?x41) 0) (= (+ (* (- 1) (* r b)) ?x406 (* s a) ?x51) 0) $x280 $x619 $x602 $x360)))
 (rewrite (= $x452 $x686)))))))))))))))))))))))))))))))))))))))))
 ))
 (let (($x111 (exists ((p Int) (a Int) (q Int) (b Int) (r Int) (s Int) )(! (let ((?x99 (- s r)))
 (let ((?x102 (- q p)))
 (let ((?x105 (+ (* (- 1) (- b a) (- b a) ?x102 ?x102 ?x102 r r) (* a a a ?x102 ?x102 ?x99 ?x99))))
 (let ((?x51 (* b00 r00)))
 (let ((?x101 (+ (- (* (- 1) (- b a) r) (* a00 s00)) (* a ?x99) ?x51)))
 (let ((?x92 (+ (* (- 1) b b q q q (- r s) (- r s)) (* (- a b) (- a b) (- a b) q q s s))))
 (let ((?x89 (+ (- (* (- 1) b (- r s)) (* a00 s00)) (* (- a b) s) ?x51)))
 (let ((?x81 (* a00 q00 s)))
 (let ((?x76 (* b p00 s00)))
 (let ((?x77 (- (+ (* b q00 r00) (* b00 p00 s)) (* b00 q r00))))
 (let ((?x69 (* a00 q00 r)))
 (let ((?x66 (* a q00 r00)))
 (let ((?x65 (* b00 p00 r)))
 (let ((?x68 (+ (- (* (- 1) b00 p r00) (* a p00 s00)) ?x65 ?x66 (* a00 p s00))))
 (let ((?x59 (* b p)))
 (let ((?x60 (+ (- (+ (* (- 1) a q) (* a00 q00)) (* b00 p00)) ?x59)))
 (let (($x53 (= (+ (- (* (- 1) b r) (* a00 s00)) (* a s) ?x51) 0)))
 (let ((?x41 (* q00 r00)))
 (let ((?x42 (+ (- (+ (* (- 1) q r) (* p s)) (* p00 s00)) ?x41)))
 (and (= ?x42 0) $x53 (= ?x60 0) (= (- ?x68 ?x69) 0) (= (- (+ (- ?x77 ?x76) (* a00 q s00)) ?x81) 0) (or (not (= (* ?x89 ?x92) 0)) (not (= (* ?x101 ?x105) 0))))))))))))))))))))))) :qid k!39))
 ))
 (let ((?x296 (lambda ((p Int) (a Int) (q Int) (b Int) (r Int) (s Int) )(let ((?x51 (* b00 r00)))
 (let ((?x47 (* a00 s00)))
 (let ((?x406 (* (- 1) ?x47)))
 (let ((?x469 (+ (* (- 1) (* (+ b (* (- 1) a)) r)) ?x406 (* (+ s (* (- 1) r)) a) ?x51)))
 (let ((?x465 (* (- 1) p)))
 (let ((?x318 (+ q ?x465)))
 (let ((?x608 (+ s (* (- 1) r))))
 (let ((?x333 (* (- 1) a)))
 (let ((?x626 (+ b ?x333)))
 (let ((?x376 (+ (* (- 1) (* ?x626 ?x626 ?x318 ?x318 ?x318 r r)) (* ?x608 ?x608 ?x318 ?x318 a a a))))
 (let ((?x668 (+ (* (- 1) (* (+ r (* (- 1) s)) b)) ?x406 (* (+ a (* (- 1) b)) s) ?x51)))
 (let ((?x297 (+ a (* (- 1) b))))
 (let ((?x257 (* (- 1) s)))
 (let ((?x237 (+ r ?x257)))
 (let ((?x308 (+ (* (- 1) (* ?x237 ?x237 b b q q q)) (* ?x297 ?x297 ?x297 s s q q))))
 (let (($x360 (or (not (= (* ?x308 ?x668) 0)) (not (= (* ?x376 ?x469) 0)))))
 (let ((?x73 (* b00 p00 s)))
 (let ((?x627 (+ (* q00 r00 b) ?x73 (* (- 1) (* b00 r00 q)) (* (- 1) (* p00 s00 b)) (* a00 s00 q) (* (- 1) (* a00 q00 s)))))
 (let (($x602 (= ?x627 0)))
 (let ((?x329 (* a00 s00 p)))
 (let ((?x328 (* q00 r00 a)))
 (let ((?x65 (* b00 p00 r)))
 (let ((?x539 (+ (* (- 1) (* b00 r00 p)) (* (- 1) (* p00 s00 a)) ?x65 ?x328 ?x329 (* (- 1) (* a00 q00 r)))))
 (let ((?x59 (* b p)))
 (let ((?x55 (* a00 q00)))
 (let (($x280 (= (+ (* (- 1) (* q a)) ?x55 (* (- 1) (* b00 p00)) ?x59) 0)))
 (let ((?x41 (* q00 r00)))
 (let ((?x37 (* p00 s00)))
 (let ((?x136 (* (- 1) ?x37)))
 (let ((?x381 (* s p)))
 (let (($x452 (and (= (+ (* (- 1) (* r q)) ?x381 ?x136 ?x41) 0) (= (+ (* (- 1) (* r b)) ?x406 (* s a) ?x51) 0) $x280 (= ?x539 0) $x602 $x360)))
 (let ((?x99 (- s r)))
 (let ((?x102 (- q p)))
 (let ((?x105 (+ (* (- 1) (- b a) (- b a) ?x102 ?x102 ?x102 r r) (* a a a ?x102 ?x102 ?x99 ?x99))))
 (let ((?x106 (* (+ (- (* (- 1) (- b a) r) ?x47) (* a ?x99) ?x51) ?x105)))
 (let ((?x92 (+ (* (- 1) b b q q q (- r s) (- r s)) (* (- a b) (- a b) (- a b) q q s s))))
 (let ((?x89 (+ (- (* (- 1) b (- r s)) ?x47) (* (- a b) s) ?x51)))
 (let ((?x81 (* a00 q00 s)))
 (let ((?x76 (* b p00 s00)))
 (let ((?x80 (+ (- (- (+ (* b q00 r00) ?x73) (* b00 q r00)) ?x76) (* a00 q s00))))
 (let ((?x69 (* a00 q00 r)))
 (let ((?x66 (* a q00 r00)))
 (let ((?x68 (+ (- (* (- 1) b00 p r00) (* a p00 s00)) ?x65 ?x66 (* a00 p s00))))
 (let (($x61 (= (+ (- (+ (* (- 1) a q) ?x55) (* b00 p00)) ?x59) 0)))
 (let (($x44 (= (+ (- (+ (* (- 1) q r) (* p s)) ?x37) ?x41) 0)))
 (let (($x110 (and $x44 (= (+ (- (* (- 1) b r) ?x47) (* a s) ?x51) 0) $x61 (= (- ?x68 ?x69) 0) (= (- ?x80 ?x81) 0) (or (not (= (* ?x89 ?x92) 0)) (not (= ?x106 0))))))
 (rewrite (= $x110 $x452)))))))))))))))))))))))))))))))))))))))))))))))))
 ))
 (let ((@x112 (asserted $x111)))
 (let ((@x545 (mp (mp @x112 (quant-intro (proof-bind ?x296) (= $x111 $x157)) $x157) (rewrite (= $x157 $x157)) $x157)))
 (let ((@x468 (mp (mp @x545 (quant-intro (proof-bind ?x448) (= $x157 $x449)) $x449) (quant-intro (proof-bind ?x402) (= $x449 $x400)) $x400)))
 (let ((@x372 (mp (mp~ @x468 (sk (~ $x400 $x827)) $x827) (rewrite (= $x827 $x709)) $x709)))
 (let ((@x845 (and-elim @x372 $x767)))
 (let ((@x834 (unit-resolution ((_ th-lemma arith triangle-eq) (or (not $x767) $x293)) @x845 $x293)))
 (let (($x292 (<= ?x765 0)))
 (let ((@x192 (unit-resolution ((_ th-lemma arith triangle-eq) (or (not $x767) $x292)) @x845 $x292)))
 (let (($x147 (not (<= ?x640 0))))
 (let (($x847 (>= ?x426 0)))
 (let (($x682 (<= ?x426 0)))
 (let ((@x374 (unit-resolution ((_ th-lemma arith triangle-eq) (or $x814 (not $x682) (not $x847))) (lemma ((_ th-lemma arith farkas 1 1 1) (hypothesis (not $x682)) @x192 @x834 false) $x682) (lemma ((_ th-lemma arith farkas 1 1 1) (hypothesis (not $x847)) @x192 @x834 false) $x847) $x814)))
 (let (($x566 (>= ?x640 0)))
 (let ((@x343 (unit-resolution ((_ th-lemma arith triangle-eq) (or $x1022 $x147 (not $x566))) (lemma ((_ th-lemma arith farkas 1 1 1) (hypothesis (not $x566)) @x192 @x834 false) $x566) (unit-resolution (and-elim @x372 $x171) @x374 $x557) $x147)))
 ((_ th-lemma arith farkas 1 1 1) @x343 @x192 @x834 false))))))))))))))))))))))))))))))))))))))))))))))))))))))))))))))

(:added-eqs                 10
 :arith-assert-diseq        3
 :arith-assert-lower        19
 :arith-assert-upper        18
 :arith-conflicts           4
 :arith-eq-adapter          11
 :arith-fixed-eqs           6
 :arith-grobner             4
 :arith-max-min             528
 :arith-nonlinear-horner    30
 :arith-num-rows            8
 :arith-pivots              5
 :arith-pseudo-nonlinear    8
 :arith-row-summations      1
 :arith-tableau-max-columns 80
 :arith-tableau-max-rows    8
 :conflicts                 4
 :decisions                 7
 :del-clause                27
 :final-checks              4
 :max-memory                479.33
 :memory                    3.19
 :mk-bool-var               39
 :mk-clause                 40
 :num-allocs                150086694485215.00
 :num-checks                1
 :propagations              19
 :rlimit-count              197325805
 :time                      277.53
 :total-time                277.11)
